50, 687
38, 38
24, 24
18, 18
6, 6
44, 44
26, 26
44, 44
42, 42
8, 8
6, 6
22, 22
14, 14
18, 18
42, 42
28, 28
22, 22
10, 10
36, 36
30, 30
10, 10
6, 6
30, 30
8, 8
46, 46
2, 2
34, 34
32, 32
46, 46
26, 26
48, 48
44, 44
46, 46
22, 22
14, 14
40, 40
16, 16
38, 38
48, 48
24, 24
22, 22
18, 18
40, 40
26, 26
34, 34
48, 48
10, 10
26, 26
26, 26
24, 24
40, 40
